14° run output:
{
    "Function": "kroB300.tsp",
    "Problem dimension": [
        48,
        157,
        218,
        238,
        146,
        147,
        62,
        295,
        88,
        42,
        144,
        33,
        49,
        102,
        41,
        192,
        229,
        0,
        10,
        28,
        211,
        269,
        100,
        171,
        94,
        188,
        251,
        20,
        225,
        214,
        263,
        82,
        215,
        242,
        289,
        198,
        241,
        247,
        174,
        250,
        298,
        299,
        16,
        228,
        246,
        43,
        264,
        12,
        167,
        56,
        258,
        262,
        226,
        256,
        288,
        85,
        271,
        292,
        294,
        87,
        172,
        276,
        11,
        66,
        227,
        78,
        204,
        217,
        164,
        38,
        69,
        110,
        90,
        142,
        279,
        280,
        261,
        155,
        14,
        125,
        63,
        212,
        182,
        286,
        281,
        29,
        230,
        30,
        248,
        103,
        136,
        81,
        152,
        222,
        205,
        219,
        18,
        232,
        99,
        126,
        37,
        127,
        57,
        154,
        2,
        139,
        40,
        284,
        54,
        285,
        201,
        44,
        266,
        17,
        77,
        278,
        55,
        275,
        270,
        194,
        296,
        191,
        105,
        72,
        244,
        7,
        148,
        84,
        143,
        199,
        65,
        206,
        35,
        236,
        13,
        132,
        249,
        114,
        233,
        6,
        185,
        235,
        124,
        123,
        165,
        52,
        208,
        255,
        178,
        151,
        223,
        26,
        130,
        131,
        107,
        202,
        260,
        120,
        254,
        98,
        183,
        23,
        179,
        39,
        45,
        259,
        213,
        3,
        195,
        34,
        267,
        50,
        153,
        190,
        137,
        141,
        245,
        109,
        272,
        25,
        133,
        193,
        184,
        80,
        64,
        9,
        173,
        140,
        257,
        104,
        73,
        89,
        283,
        106,
        168,
        207,
        221,
        177,
        175,
        210,
        19,
        293,
        282,
        181,
        67,
        24,
        290,
        162,
        166,
        27,
        180,
        239,
        189,
        4,
        200,
        75,
        268,
        163,
        253,
        97,
        224,
        121,
        158,
        187,
        61,
        95,
        76,
        252,
        108,
        111,
        149,
        112,
        74,
        22,
        21,
        220,
        160,
        277,
        60,
        117,
        170,
        51,
        115,
        32,
        1,
        36,
        273,
        159,
        150,
        297,
        196,
        231,
        31,
        138,
        234,
        70,
        96,
        169,
        243,
        71,
        237,
        118,
        15,
        59,
        119,
        101,
        79,
        122,
        86,
        113,
        216,
        274,
        265,
        176,
        68,
        209,
        116,
        287,
        197,
        135,
        156,
        186,
        161,
        134,
        240,
        53,
        47,
        203,
        129,
        93,
        83,
        145,
        92,
        128,
        58,
        8,
        91,
        46,
        291,
        5
    ],
    "Global Optimum": 0,
    "Algorithm": "Genetic algorithm",
    "Parameters": {
        "population": 30,
        "offspring": 30,
        "mutation probability": 0.0033333333333333335,
        "crossover probability": 0.9
    },
    "Fitness": 348464,
    "Solution": [
        48,
        157,
        218,
        238,
        146,
        147,
        62,
        295,
        88,
        42,
        144,
        33,
        49,
        102,
        41,
        192,
        229,
        0,
        10,
        28,
        211,
        269,
        100,
        171,
        94,
        188,
        251,
        20,
        225,
        214,
        263,
        82,
        215,
        242,
        289,
        198,
        241,
        247,
        174,
        250,
        298,
        299,
        16,
        228,
        246,
        43,
        264,
        12,
        167,
        56,
        258,
        262,
        226,
        256,
        288,
        85,
        271,
        292,
        294,
        87,
        172,
        276,
        11,
        66,
        227,
        78,
        204,
        217,
        164,
        38,
        69,
        110,
        90,
        142,
        279,
        280,
        261,
        155,
        14,
        125,
        63,
        212,
        182,
        286,
        281,
        29,
        230,
        30,
        248,
        103,
        136,
        81,
        152,
        222,
        205,
        219,
        18,
        232,
        99,
        126,
        37,
        127,
        57,
        154,
        2,
        139,
        40,
        284,
        54,
        285,
        201,
        44,
        266,
        17,
        77,
        278,
        55,
        275,
        270,
        194,
        296,
        191,
        105,
        72,
        244,
        7,
        148,
        84,
        143,
        199,
        65,
        206,
        35,
        236,
        13,
        132,
        249,
        114,
        233,
        6,
        185,
        235,
        124,
        123,
        165,
        52,
        208,
        255,
        178,
        151,
        223,
        26,
        130,
        131,
        107,
        202,
        260,
        120,
        254,
        98,
        183,
        23,
        179,
        39,
        45,
        259,
        213,
        3,
        195,
        34,
        267,
        50,
        153,
        190,
        137,
        141,
        245,
        109,
        272,
        25,
        133,
        193,
        184,
        80,
        64,
        9,
        173,
        140,
        257,
        104,
        73,
        89,
        283,
        106,
        168,
        207,
        221,
        177,
        175,
        210,
        19,
        293,
        282,
        181,
        67,
        24,
        290,
        162,
        166,
        27,
        180,
        239,
        189,
        4,
        200,
        75,
        268,
        163,
        253,
        97,
        224,
        121,
        158,
        187,
        61,
        95,
        76,
        252,
        108,
        111,
        149,
        112,
        74,
        22,
        21,
        220,
        160,
        277,
        60,
        117,
        170,
        51,
        115,
        32,
        1,
        36,
        273,
        159,
        150,
        297,
        196,
        231,
        31,
        138,
        234,
        70,
        96,
        169,
        243,
        71,
        237,
        118,
        15,
        59,
        119,
        101,
        79,
        122,
        86,
        113,
        216,
        274,
        265,
        176,
        68,
        209,
        116,
        287,
        197,
        135,
        156,
        186,
        161,
        134,
        240,
        53,
        47,
        203,
        129,
        93,
        83,
        145,
        92,
        128,
        58,
        8,
        91,
        46,
        291,
        5
    ],
    "Nb of functions evaluations": 50010,
    "Computational time in seconds": 147.02924752235413,
    "Stopping criterion in evaluations": 50000
}